562 5
10 10 10 10 10 

0 0 0 0 0 0 3 2 54 66 
0 0 0 0 0 0 3 3 5 6 
1 2 3 4 4 1 4 12 8 7 4 
2 6 6 7 5 8 5 17 15 11 10 9 
10 7 5 6 5 8 2 10 7 
10 10 7 8 3 6 2 15 7 
1 3 10 7 10 9 4 17 16 11 9 
4 6 7 8 4 10 3 17 10 9 
4 6 7 3 5 6 4 26 19 18 14 
6 5 10 4 10 10 3 20 16 13 
2 9 9 4 10 7 2 18 13 
1 8 9 4 6 8 4 26 24 23 18 
5 10 7 7 4 7 4 26 23 22 19 
5 8 7 5 4 10 4 23 22 21 20 
7 4 4 10 6 9 4 26 22 21 19 
3 7 10 7 6 5 4 26 24 22 21 
7 6 6 7 10 3 2 26 19 
3 6 5 3 8 5 2 22 21 
9 10 9 10 8 9 2 29 24 
6 9 9 10 5 10 2 29 24 
3 6 8 10 7 4 3 29 25 441 
3 10 9 7 7 9 3 29 28 27 
10 9 10 7 10 8 3 29 28 27 
2 6 8 10 7 4 1 25 
4 8 10 6 10 6 2 28 27 
2 9 8 10 10 8 2 29 28 
3 10 8 7 4 7 4 35 34 32 30 
5 10 5 9 10 6 3 35 32 31 
9 9 10 5 8 9 3 35 34 32 
10 9 10 8 10 7 2 38 33 
9 3 9 9 8 9 6 52 40 39 38 37 36 
10 8 6 5 4 6 1 33 
2 10 7 10 7 10 6 52 51 40 39 37 36 
4 10 7 9 8 7 5 40 39 38 37 36 
3 9 5 6 10 4 5 52 51 39 37 36 
7 9 4 10 8 10 8 49 48 47 46 45 43 42 41 
6 6 9 4 8 10 7 49 48 47 46 44 43 42 
2 6 10 9 8 10 6 51 49 45 44 43 42 
9 5 4 6 7 9 4 50 48 47 43 
7 10 10 10 10 8 3 46 45 42 
4 10 6 7 8 8 2 50 44 
4 5 8 10 8 4 1 53 
9 10 10 10 10 10 1 53 
7 6 4 10 6 9 1 53 
6 10 8 7 10 8 1 53 
9 9 10 10 9 10 1 53 
7 6 5 10 10 8 1 53 
7 6 8 5 7 10 1 53 
2 5 8 9 10 2 1 53 
9 8 5 10 10 9 1 53 
10 10 6 6 6 9 1 53 
1 6 10 10 7 6 1 53 
0 0 0 0 0 0 1 562 
0 0 0 0 0 0 6 55 56 57 58 60 64 
2 0 0 0 6 0 3 63 62 59 
7 0 0 0 7 0 2 62 59 
1 0 0 0 6 0 2 62 59 
10 0 0 0 10 0 1 59 
3 0 0 0 7 0 2 61 544 
7 0 0 0 5 0 1 63 
10 0 0 0 10 0 1 65 
8 0 0 0 8 0 1 65 
6 0 0 0 9 0 1 65 
1 0 0 0 7 0 1 65 
0 0 0 0 0 0 5 118 160 202 244 286 
0 0 0 0 0 0 3 67 69 70 
6 8 5 4 1 3 3 72 71 68 
6 7 5 10 7 9 6 81 77 76 75 74 73 
2 6 10 9 9 3 3 76 73 71 
3 7 6 10 8 10 2 73 71 
4 7 9 8 6 6 4 81 78 75 74 
1 7 8 6 5 7 3 81 74 73 
7 10 10 3 5 10 3 83 80 78 
10 10 3 9 9 8 3 83 82 79 
9 6 6 6 8 6 3 84 83 80 
8 8 5 6 10 6 4 87 85 84 82 
8 8 6 3 8 4 4 89 87 84 83 
2 10 7 6 5 10 3 85 84 82 
9 7 9 8 7 9 3 87 85 84 
5 10 10 9 7 10 2 87 82 
2 8 5 4 10 10 2 84 82 
6 10 6 10 10 10 3 89 88 86 
6 9 10 10 8 5 1 85 
2 10 7 8 6 6 2 92 88 
7 9 6 8 5 5 2 90 86 
9 2 10 5 9 7 3 93 92 91 
2 7 6 7 4 7 3 93 92 91 
3 6 4 8 3 4 1 90 
7 7 10 6 4 9 3 96 93 92 
7 6 6 7 10 4 2 93 91 
10 6 6 10 10 8 4 99 97 96 95 
9 7 8 6 4 7 4 99 97 95 94 
6 9 5 9 10 9 3 99 97 94 
4 6 10 10 8 8 2 101 98 
6 5 10 6 9 10 2 101 98 
9 10 8 9 3 7 2 101 98 
8 5 4 6 7 10 1 98 
1 6 4 8 10 7 5 116 115 104 103 100 
9 9 10 8 10 7 4 116 115 104 100 
8 3 10 8 10 10 3 113 105 102 
6 8 5 10 8 7 3 115 113 102 
8 10 10 9 8 7 7 114 112 111 110 109 107 106 
6 5 7 10 8 8 6 113 112 111 108 107 106 
8 10 9 8 7 7 4 110 109 108 107 
4 7 10 8 9 5 2 108 106 
2 10 10 6 10 8 2 117 306 
9 8 10 6 10 10 1 117 
10 6 9 6 7 8 1 117 
3 9 10 6 9 10 1 117 
1 7 6 8 8 4 1 117 
6 8 5 8 7 8 1 117 
5 7 10 8 9 7 1 117 
5 6 8 10 8 10 1 117 
6 5 8 10 9 9 1 117 
9 8 6 6 7 6 1 117 
1 10 8 6 6 10 1 117 
0 0 0 0 0 0 1 562 
0 0 0 0 0 0 6 119 123 124 127 131 139 
5 4 1 1 0 2 3 126 122 120 
6 2 9 9 0 8 4 141 134 128 121 
8 9 3 6 0 6 8 158 151 148 143 140 135 132 125 
6 10 5 9 0 10 9 158 148 145 143 142 135 133 132 130 
7 6 4 6 0 3 3 145 140 126 
6 4 9 10 0 10 6 151 148 144 143 136 129 
2 5 10 6 0 7 6 156 145 144 142 136 129 
5 9 3 9 0 7 5 147 142 141 134 132 
9 6 7 6 0 8 5 151 148 140 134 133 
6 4 9 4 0 7 5 156 151 150 144 133 
10 10 4 8 0 9 2 150 133 
3 10 8 10 0 10 2 156 134 
10 6 6 10 0 10 2 143 137 
3 8 10 8 0 8 3 157 156 138 
10 10 10 6 0 8 2 157 137 
1 7 6 4 0 9 2 150 137 
6 8 7 8 0 7 2 156 137 
4 7 5 8 0 10 2 157 138 
10 9 7 8 0 8 1 138 
6 10 10 10 0 10 3 153 149 146 
8 10 7 8 0 9 2 151 144 
6 7 8 9 0 9 4 155 153 152 149 
6 7 10 5 0 6 2 152 143 
3 7 10 5 0 6 3 157 154 153 
7 10 9 6 0 7 2 155 150 
2 8 7 6 0 10 1 147 
7 10 7 9 0 6 1 147 
10 7 10 6 0 6 3 155 152 547 
8 8 9 9 0 10 2 157 153 
4 10 7 9 0 4 2 156 152 
9 6 9 7 0 4 1 154 
7 10 5 10 0 3 1 154 
1 4 10 10 0 8 1 152 
3 6 8 10 0 9 1 159 
7 10 8 7 0 7 1 159 
6 5 8 8 0 8 1 159 
1 10 10 9 0 7 1 159 
6 7 9 5 0 7 1 159 
7 5 9 10 0 10 1 159 
7 9 7 6 0 7 1 159 
0 0 0 0 0 0 1 562 
0 0 0 0 0 0 6 161 165 168 169 173 181 
10 5 0 3 2 3 4 170 167 164 162 
2 8 0 9 6 7 1 163 
10 6 0 7 6 5 9 200 199 192 188 182 178 177 176 166 
10 8 0 5 3 9 7 200 192 187 183 177 176 172 
7 10 0 10 10 6 6 198 187 185 183 177 174 
10 3 0 10 10 9 5 198 187 184 183 171 
1 5 0 6 8 6 5 198 187 185 177 174 
2 7 0 8 7 9 4 199 188 186 171 
1 9 0 10 7 8 4 199 192 182 174 
4 9 0 10 7 7 3 199 184 179 
4 6 0 8 6 10 2 191 175 
8 7 0 5 7 10 2 198 174 
6 10 0 10 10 10 2 188 179 
2 7 0 6 7 5 2 191 179 
9 10 0 8 10 5 2 197 179 
1 8 0 7 8 9 2 198 179 
5 4 0 10 7 9 2 197 180 
10 6 0 10 6 10 2 197 180 
8 8 0 7 7 9 1 180 
2 8 0 8 7 2 4 196 193 190 189 
6 7 0 8 10 10 2 195 186 
9 10 0 9 8 4 3 196 194 193 
9 8 0 10 9 10 1 186 
1 9 0 5 8 9 1 186 
1 10 0 3 10 10 1 188 
7 8 0 7 4 10 2 197 193 
1 7 0 5 8 7 2 197 193 
4 7 0 4 8 7 1 191 
4 6 0 7 9 10 1 195 
7 7 0 8 5 3 1 194 
6 10 0 7 10 9 1 194 
5 10 0 10 10 6 1 198 
4 5 0 5 5 3 1 201 
2 8 0 9 10 5 1 201 
8 10 0 9 8 6 1 201 
7 6 0 8 9 8 1 201 
3 8 0 8 10 9 1 201 
3 9 0 7 8 9 1 201 
10 5 0 8 7 8 1 201 
5 6 0 6 3 9 1 201 
0 0 0 0 0 0 1 562 
0 0 0 0 0 0 3 203 204 208 
8 0 3 3 7 2 4 210 207 206 205 
4 0 6 7 8 3 4 217 216 212 209 
8 0 8 8 8 7 6 230 217 216 215 213 212 
2 0 6 3 8 4 3 216 212 209 
9 0 4 9 8 9 5 223 216 214 213 211 
1 0 10 4 10 10 3 215 212 210 
8 0 8 7 10 7 4 223 219 214 211 
10 0 8 10 9 6 6 230 226 223 222 219 216 
9 0 9 6 6 7 6 230 226 224 221 220 215 
9 0 10 10 5 5 4 226 224 218 214 
6 0 9 8 10 10 6 225 224 222 221 220 219 
2 0 7 8 5 7 6 229 228 225 222 221 220 
5 0 8 9 10 7 5 229 228 225 222 218 
7 0 7 8 3 6 5 228 224 221 220 218 
1 0 5 6 6 10 4 224 223 221 219 
1 0 7 10 7 10 3 235 231 227 
10 0 7 7 5 8 3 233 229 228 
7 0 6 6 6 9 2 231 227 
10 0 10 9 7 6 3 234 233 232 
1 0 10 9 10 8 3 234 233 232 
2 0 7 4 10 10 3 234 233 232 
6 0 5 10 7 7 2 233 231 
3 0 9 4 8 8 2 235 231 
3 0 9 9 10 10 2 233 231 
10 0 10 8 10 7 4 237 236 234 233 
1 0 8 7 10 10 3 242 235 232 
10 0 5 6 5 6 1 231 
8 0 8 10 10 10 3 236 234 233 
7 0 10 7 7 5 2 242 232 
8 0 10 9 5 8 3 241 237 236 
4 0 6 6 6 9 4 241 240 239 238 
7 0 10 6 8 10 4 242 241 239 238 
6 0 8 10 5 9 1 236 
6 0 6 7 9 6 3 240 239 238 
6 0 4 9 6 5 3 240 239 238 
5 0 10 8 4 6 1 243 
6 0 8 10 7 7 1 243 
9 0 7 8 7 10 1 243 
6 0 6 9 10 8 1 243 
3 0 6 6 8 8 1 243 
0 0 0 0 0 0 1 562 
0 0 0 0 0 0 3 245 249 251 
8 1 9 4 9 0 4 254 248 247 246 
9 7 7 5 6 0 7 273 261 259 258 257 256 253 
1 10 8 7 9 0 3 256 253 250 
1 10 7 7 8 0 6 276 261 257 256 255 252 
10 8 5 10 4 0 4 261 259 253 252 
5 7 10 3 8 0 4 276 261 255 252 
9 8 7 10 10 0 3 258 254 253 
3 5 10 8 8 0 8 273 269 267 266 264 263 262 258 
9 10 3 5 8 0 4 264 263 260 255 
1 7 9 8 8 0 4 273 268 266 256 
2 6 7 7 10 0 6 271 269 268 267 266 265 
7 10 10 9 8 0 5 271 269 267 262 260 
4 9 7 7 6 0 5 271 269 267 266 263 
4 6 3 9 6 0 3 271 268 260 
10 10 6 6 8 0 4 276 275 271 262 
5 10 6 7 9 0 3 279 270 265 
5 6 7 4 5 0 2 271 268 
6 6 6 8 8 0 2 274 270 
8 10 10 4 7 0 2 279 270 
6 5 10 8 9 0 2 274 270 
2 10 7 10 8 0 4 278 277 275 274 
9 10 10 7 10 0 4 278 277 275 274 
7 4 9 6 7 0 3 284 274 272 
7 7 10 9 4 0 1 270 
8 6 5 10 9 0 3 277 275 274 
8 8 8 8 10 0 2 284 272 
8 7 8 10 9 0 2 279 272 
9 9 10 8 5 0 3 283 278 277 
1 5 6 5 6 0 1 275 
9 8 7 5 5 0 4 283 282 281 280 
2 9 3 10 10 0 4 284 283 281 280 
2 8 3 6 8 0 1 277 
10 6 7 7 5 0 3 282 281 280 
9 5 5 9 9 0 3 282 281 280 
6 10 10 8 8 0 2 282 280 
4 8 10 10 6 0 1 285 
2 5 7 10 4 0 1 285 
10 10 8 7 8 0 1 285 
5 7 10 9 7 0 1 285 
6 7 10 10 8 0 1 285 
0 0 0 0 0 0 1 562 
0 0 0 0 0 0 7 287 289 290 291 294 295 296 
6 0 0 8 0 0 2 293 288 
4 0 0 4 0 0 1 292 
10 0 0 7 0 0 1 293 
2 0 0 5 0 0 1 292 
7 0 0 10 0 0 1 292 
5 0 0 6 0 0 1 297 
5 0 0 6 0 0 1 297 
5 0 0 9 0 0 1 297 
5 0 0 10 0 0 1 297 
1 0 0 10 0 0 1 297 
0 0 0 0 0 0 5 298 330 362 394 406 
0 0 0 0 0 0 7 299 300 301 303 308 327 328 
7 0 5 5 0 6 4 323 307 304 302 
8 0 10 5 0 4 6 324 323 322 321 320 305 
10 0 7 10 0 3 4 325 324 315 305 
4 0 6 2 0 8 3 320 314 305 
9 0 6 8 0 7 6 326 324 317 314 310 307 
5 0 7 4 0 8 3 318 309 306 
4 0 8 10 0 8 2 318 306 
6 0 7 9 0 10 3 319 313 310 
4 0 7 8 0 4 3 320 318 311 
8 0 6 6 0 10 2 323 309 
1 0 7 5 0 9 2 322 313 
9 0 10 10 0 7 1 311 
10 0 7 5 0 9 1 312 
5 0 7 9 0 9 1 316 
2 0 10 10 0 7 1 317 
8 0 9 10 0 10 1 321 
9 0 10 10 0 10 1 316 
8 0 9 10 0 10 1 329 
7 0 8 6 0 6 1 329 
6 0 5 4 0 5 1 329 
7 0 6 10 0 10 1 329 
2 0 9 10 0 5 1 329 
6 0 6 7 0 8 1 329 
6 0 7 10 0 9 1 329 
2 0 6 3 0 9 1 329 
10 0 7 6 0 8 1 329 
1 0 5 8 0 9 1 329 
10 0 10 5 0 7 1 329 
8 0 10 10 0 2 1 329 
6 0 8 10 0 8 1 329 
0 0 0 0 0 0 1 562 
0 0 0 0 0 0 7 331 333 335 336 339 359 360 
4 0 5 0 5 6 4 353 341 334 332 
1 0 6 0 2 5 3 352 346 337 
7 0 6 0 8 4 5 358 357 354 349 338 
10 0 10 0 8 5 4 355 349 343 338 
9 0 9 0 6 10 4 354 353 349 338 
8 0 9 0 8 10 5 356 354 351 342 341 
8 0 9 0 8 4 2 349 338 
2 0 5 0 5 8 3 350 345 340 
9 0 6 0 10 10 2 353 343 
5 0 7 0 9 10 1 342 
2 0 7 0 7 10 2 352 349 
6 0 8 0 5 4 1 344 
6 0 7 0 9 9 1 345 
2 0 4 0 7 7 1 347 
7 0 9 0 10 7 1 348 
9 0 10 0 9 6 1 351 
2 0 7 0 8 9 1 361 
3 0 8 0 10 8 1 361 
7 0 10 0 9 6 1 361 
7 0 6 0 10 8 1 361 
10 0 5 0 6 5 1 361 
9 0 7 0 6 7 1 361 
6 0 10 0 8 9 1 361 
4 0 3 0 8 10 1 361 
6 0 10 0 10 10 1 361 
9 0 5 0 9 7 1 361 
8 0 8 0 3 6 1 361 
1 0 9 0 6 7 1 361 
9 0 10 0 9 10 1 361 
3 0 10 0 7 8 1 361 
0 0 0 0 0 0 1 562 
0 0 0 0 0 0 6 363 364 365 366 367 370 
5 8 3 0 0 2 5 380 377 371 369 368 
5 3 5 0 0 10 5 380 378 377 371 368 
9 10 6 0 0 3 4 378 377 371 368 
10 9 6 0 0 10 3 380 369 368 
8 7 9 0 0 7 4 380 373 372 369 
8 4 10 0 0 3 4 376 375 374 372 
10 7 10 0 0 10 4 381 378 375 374 
4 6 6 0 0 8 3 378 374 372 
8 7 7 0 0 8 1 373 
4 5 5 0 0 8 3 382 381 379 
10 7 4 0 0 7 3 382 381 379 
6 10 8 0 0 8 2 382 379 
1 4 10 0 0 7 2 382 379 
3 10 9 0 0 6 2 381 379 
5 4 8 0 0 8 2 382 379 
6 6 10 0 0 10 1 379 
5 7 6 0 0 7 5 392 391 386 384 383 
4 10 7 0 0 10 3 386 383 381 
3 9 10 0 0 3 4 392 391 387 385 
4 10 7 0 0 10 2 391 383 
6 10 4 0 0 6 2 390 387 
3 5 8 0 0 6 1 385 
10 10 4 0 0 7 2 390 389 
7 10 8 0 0 8 2 390 389 
3 10 10 0 0 10 1 388 
7 8 10 0 0 10 1 389 
9 10 9 0 0 6 1 393 
6 6 9 0 0 10 1 393 
7 8 7 0 0 9 1 393 
4 5 10 0 0 8 1 393 
0 0 0 0 0 0 1 562 
0 0 0 0 0 0 5 395 396 397 398 400 
1 0 4 0 0 0 3 402 401 399 
8 0 10 0 0 0 2 402 399 
3 0 3 0 0 0 2 404 401 
1 0 10 0 0 0 2 404 401 
7 0 5 0 0 0 2 404 403 
10 0 9 0 0 0 2 404 403 
7 0 10 0 0 0 1 403 
5 0 7 0 0 0 1 403 
7 0 10 0 0 0 1 405 
1 0 7 0 0 0 1 405 
0 0 0 0 0 0 5 438 460 482 504 516 
0 0 0 0 0 0 6 407 408 409 410 414 436 
8 0 3 9 0 3 4 419 413 412 411 
10 0 8 4 0 6 6 426 425 421 419 418 415 
4 0 5 8 0 7 6 434 429 425 421 418 415 
9 0 10 8 0 10 5 435 426 421 416 413 
7 0 5 6 0 9 4 429 426 425 415 
5 0 10 6 0 2 3 431 417 416 
7 0 7 8 0 3 5 431 429 425 424 420 
6 0 9 3 0 8 4 433 420 419 417 
1 0 10 8 0 10 2 431 416 
3 0 2 9 0 8 3 432 424 420 
5 0 8 10 0 7 3 429 424 422 
7 0 10 9 0 8 2 430 420 
2 0 6 9 0 10 2 429 423 
1 0 8 8 0 5 1 422 
5 0 5 8 0 3 1 422 
3 0 6 6 0 6 1 423 
1 0 5 6 0 9 1 427 
9 0 6 4 0 10 1 428 
4 0 9 6 0 9 1 430 
2 0 8 8 0 4 1 430 
8 0 9 10 0 9 1 437 
7 0 7 5 0 6 1 437 
10 0 8 10 0 10 1 437 
4 0 10 9 0 10 1 437 
1 0 9 10 0 5 1 437 
2 0 7 6 0 8 1 437 
2 0 9 10 0 10 1 437 
1 0 8 7 0 10 1 437 
3 0 8 8 0 10 1 437 
7 0 10 7 0 10 1 437 
0 0 0 0 0 0 1 562 
0 0 0 0 0 0 11 439 441 442 443 446 447 454 455 456 457 458 
8 1 0 0 0 1 2 451 440 
9 6 0 0 0 10 2 449 444 
7 3 0 0 0 8 3 451 450 448 
6 8 0 0 0 4 2 453 449 
6 10 0 0 0 10 2 449 448 
3 10 0 0 0 10 1 445 
8 10 0 0 0 5 1 448 
10 5 0 0 0 10 1 452 
6 6 0 0 0 10 1 450 
9 10 0 0 0 8 1 459 
3 6 0 0 0 5 1 459 
6 8 0 0 0 8 1 459 
4 10 0 0 0 5 1 459 
2 10 0 0 0 9 1 459 
8 6 0 0 0 7 1 459 
7 9 0 0 0 10 1 459 
7 10 0 0 0 7 1 459 
1 4 0 0 0 6 1 459 
9 10 0 0 0 8 1 459 
5 8 0 0 0 9 1 459 
0 0 0 0 0 0 1 562 
0 0 0 0 0 0 9 461 462 463 466 467 468 469 471 480 
10 0 3 0 2 0 6 479 478 477 476 474 470 
7 0 6 0 8 0 3 475 474 464 
9 0 9 0 8 0 2 475 465 
8 0 6 0 9 0 3 477 476 472 
8 0 7 0 10 0 2 474 470 
2 0 10 0 4 0 2 475 470 
5 0 3 0 10 0 2 476 472 
8 0 10 0 3 0 2 478 475 
7 0 10 0 10 0 2 474 473 
5 0 7 0 5 0 1 472 
5 0 10 0 8 0 1 472 
9 0 10 0 9 0 1 473 
7 0 10 0 10 0 1 481 
2 0 10 0 10 0 1 481 
6 0 8 0 10 0 1 481 
5 0 3 0 4 0 1 481 
4 0 7 0 6 0 1 481 
6 0 5 0 9 0 1 481 
7 0 10 0 8 0 1 481 
9 0 6 0 7 0 1 481 
0 0 0 0 0 0 1 562 
0 0 0 0 0 0 9 483 484 485 487 490 491 492 493 502 
5 0 0 6 0 6 5 501 500 499 498 489 
8 0 0 6 0 6 3 501 497 486 
5 0 0 7 0 6 2 497 488 
6 0 0 3 0 7 4 499 498 496 494 
9 0 0 6 0 6 2 497 489 
4 0 0 7 0 10 1 489 
6 0 0 10 0 9 2 496 494 
4 0 0 6 0 6 2 498 494 
10 0 0 4 0 5 2 496 494 
6 0 0 9 0 5 2 500 497 
3 0 0 8 0 10 1 494 
1 0 0 10 0 4 1 495 
10 0 0 10 0 10 1 503 
1 0 0 9 0 10 1 503 
4 0 0 10 0 10 1 503 
6 0 0 4 0 5 1 503 
5 0 0 10 0 9 1 503 
7 0 0 10 0 9 1 503 
9 0 0 5 0 9 1 503 
8 0 0 10 0 8 1 503 
0 0 0 0 0 0 1 562 
0 0 0 0 0 0 5 505 506 507 510 514 
9 0 3 0 0 0 2 513 508 
10 0 9 0 0 0 2 512 509 
9 0 9 0 0 0 2 512 509 
7 0 6 0 0 0 2 512 511 
5 0 8 0 0 0 1 511 
2 0 6 0 0 0 1 511 
9 0 10 0 0 0 1 515 
3 0 7 0 0 0 1 515 
10 0 10 0 0 0 1 515 
6 0 7 0 0 0 1 515 
0 0 0 0 0 0 2 538 550 
0 0 0 0 0 0 8 517 518 519 520 521 523 527 536 
1 1 2 0 0 0 4 534 533 532 522 
8 10 9 0 0 0 5 535 534 533 529 525 
1 7 7 0 0 0 4 534 532 529 524 
4 7 10 0 0 0 4 533 532 529 524 
3 4 5 0 0 0 4 533 532 529 526 
7 10 8 0 0 0 4 535 531 529 528 
9 10 9 0 0 0 4 534 533 532 530 
1 7 3 0 0 0 1 525 
1 4 6 0 0 0 2 531 528 
4 9 9 0 0 0 2 531 528 
8 8 10 0 0 0 2 531 528 
3 10 6 0 0 0 1 530 
4 8 10 0 0 0 1 530 
6 10 9 0 0 0 1 537 
6 9 5 0 0 0 1 537 
1 8 6 0 0 0 1 537 
8 6 7 0 0 0 1 537 
5 8 9 0 0 0 1 537 
3 6 10 0 0 0 1 537 
4 8 10 0 0 0 1 537 
0 0 0 0 0 0 1 562 
0 0 0 0 0 0 4 539 540 541 542 
1 0 4 0 0 0 5 548 547 546 545 543 
1 0 7 0 0 0 3 546 545 544 
7 0 4 0 0 0 2 546 543 
7 0 9 0 0 0 2 547 545 
10 0 10 0 0 0 1 544 
8 0 6 0 0 0 1 549 
6 0 8 0 0 0 1 549 
7 0 8 0 0 0 1 549 
7 0 9 0 0 0 1 549 
6 0 10 0 0 0 1 549 
0 0 0 0 0 0 1 562 
0 0 0 0 0 0 6 551 552 553 554 555 557 
3 0 4 0 0 0 3 560 558 556 
7 0 10 0 0 0 3 560 558 556 
5 0 6 0 0 0 3 560 558 556 
3 0 10 0 0 0 3 560 558 556 
3 0 6 0 0 0 2 559 558 
2 0 6 0 0 0 1 559 
1 0 10 0 0 0 1 558 
10 0 8 0 0 0 1 561 
9 0 10 0 0 0 1 561 
5 0 5 0 0 0 1 561 
0 0 0 0 0 0 1 562 
0 0 0 0 0 0 0 
